1319.25 0
0 17 76 40 130 39 109 9 161 97 95 0 
0 81 100 150 108 69 14 133 177 19 78 178 175 60 0 
0 33 195 184 160 23 183 104 67 159 96 0 
0 48 59 5 103 88 37 138 36 155 47 171 120 0 
0 61 112 86 101 28 64 94 140 121 82 21 172 0 
0 117 63 107 24 145 73 146 147 106 44 55 3 151 0 
0 111 58 27 83 13 123 128 70 167 99 179 46 127 0 
0 34 65 176 8 102 35 180 132 7 51 149 26 0 
0 187 32 72 118 56 25 110 163 148 92 135 18 181 0 
0 186 93 156 114 142 137 89 143 90 41 190 43 197 191 1 105 0 
0 125 29 153 79 15 154 124 20 166 122 174 173 152 0 
0 12 57 189 75 162 31 131 80 10 129 169 50 168 126 0 
0 66 192 115 185 62 116 144 74 49 182 16 188 0 
0 52 11 170 84 134 85 164 165 38 119 77 71 0 
0 54 87 4 45 98 30 139 157 2 6 0 
0 198 53 158 136 199 42 68 113 91 141 22 196 194 193 0 
